NAME F-JSSP-SDST
ROWS
 N  OBJ
 E  c0      
 E  c1      
 E  c2      
 E  c3      
 E  c4      
 E  c5      
 L  c6      
 L  c7      
 L  c8      
 L  c9      
 L  c10     
 L  c11     
 L  c12     
 L  c13     
 L  c14     
 L  c15     
 G  c16     
 G  c17     
 G  c18     
 G  c19     
 G  c20     
 G  c21     
 G  c22     
 G  c23     
 G  c24     
 G  c25     
 G  c26     
 G  c27     
 G  c28     
 G  c29     
 G  c30     
 G  c31     
 G  c32     
 G  c33     
 G  c34     
 G  c35     
 G  c36     
 G  c37     
 G  c38     
 G  c39     
 G  c40     
 G  c41     
 G  c42     
 G  c43     
 G  c44     
 G  c45     
 G  c46     
 G  c47     
 G  c48     
 G  c49     
 G  c50     
 G  c51     
 G  c52     
 G  c53     
 G  c54     
 G  c55     
 G  c56     
 G  c57     
 G  c58     
 G  c59     
 G  c60     
 G  c61     
 G  c62     
 G  c63     
 G  c64     
 E  c65     
COLUMNS
    MARKER    'MARKER'                 'INTORG'
    B0(11)    c0        1
    B0(11)    c6        -1000000000
    B0(11)    c16       -43
    B0(11)    c17       -1000000043
    B0(11)    c23       -1000000000
    B0(11)    c24       -1000000000
    B0(11)    c25       -1000000000
    B0(11)    c26       -1000000000
    B0(11)    c27       -1000000000
    B0(11)    c28       -1000000000
    B0(11)    c65       -43
    B1(10)    c1        1
    B1(10)    c7        -1000000000
    B1(10)    c17       -1000000000
    B1(10)    c29       -1000000000
    B1(10)    c30       -1000000000
    B1(10)    c35       -1000000000
    B1(10)    c36       -1000000000
    B1(10)    c39       -1000000000
    B1(10)    c40       -1000000000
    B1(10)    c65       -87
    B2(11)    c1        1
    B2(11)    c8        -1000000000
    B2(11)    c31       -1000000000
    B2(11)    c32       -1000000000
    B2(11)    c33       -1000000000
    B2(11)    c34       -1000000000
    B2(11)    c37       -1000000000
    B2(11)    c38       -1000000000
    B2(11)    c41       -1000000000
    B2(11)    c42       -1000000000
    B2(11)    c65       -95
    B3(13)    c2        1
    B3(13)    c9        -1000000000
    B3(13)    c18       -63
    B3(13)    c19       -63
    B3(13)    c23       -1000000000
    B3(13)    c24       -1000000000
    B3(13)    c29       -1000000000
    B3(13)    c30       -1000000000
    B3(13)    c43       -1000000000
    B3(13)    c44       -1000000000
    B3(13)    c47       -1000000000
    B3(13)    c48       -1000000000
    B3(13)    c65       -63
    B4(11)    c2        1
    B4(11)    c10       -1000000000
    B4(11)    c18       -53
    B4(11)    c19       -1000000053
    B4(11)    c31       -1000000000
    B4(11)    c32       -1000000000
    B4(11)    c45       -1000000000
    B4(11)    c46       -1000000000
    B4(11)    c49       -1000000000
    B4(11)    c50       -1000000000
    B4(11)    c65       -53
    B5(10)    c3        1
    B5(10)    c11       -1000000000
    B5(10)    c19       -1000000000
    B5(10)    c33       -1000000000
    B5(10)    c34       -1000000000
    B5(10)    c51       -1000000000
    B5(10)    c52       -1000000000
    B5(10)    c53       -1000000000
    B5(10)    c54       -1000000000
    B5(10)    c65       -73
    B6(12)    c4        1
    B6(12)    c12       -1000000000
    B6(12)    c20       -125
    B6(12)    c21       -1000000125
    B6(12)    c22       -125
    B6(12)    c25       -1000000000
    B6(12)    c26       -1000000000
    B6(12)    c35       -1000000000
    B6(12)    c36       -1000000000
    B6(12)    c43       -1000000000
    B6(12)    c44       -1000000000
    B6(12)    c65       -125
    B7(12)    c4        1
    B7(12)    c13       -1000000000
    B7(12)    c20       -135
    B7(12)    c21       -135
    B7(12)    c22       -1000000135
    B7(12)    c37       -1000000000
    B7(12)    c38       -1000000000
    B7(12)    c45       -1000000000
    B7(12)    c46       -1000000000
    B7(12)    c51       -1000000000
    B7(12)    c52       -1000000000
    B7(12)    c65       -135
    B8(10)    c5        1
    B8(10)    c14       -1000000000
    B8(10)    c21       -1000000000
    B8(10)    c27       -1000000000
    B8(10)    c28       -1000000000
    B8(10)    c39       -1000000000
    B8(10)    c40       -1000000000
    B8(10)    c47       -1000000000
    B8(10)    c48       -1000000000
    B8(10)    c65       -43
    B9(10)    c5        1
    B9(10)    c15       -1000000000
    B9(10)    c22       -1000000000
    B9(10)    c41       -1000000000
    B9(10)    c42       -1000000000
    B9(10)    c49       -1000000000
    B9(10)    c50       -1000000000
    B9(10)    c53       -1000000000
    B9(10)    c54       -1000000000
    B9(10)    c65       -61
    B10(2)    c23       -1000000000
    B10(2)    c24       1000000000
    B11(2)    c25       -1000000000
    B11(2)    c26       1000000000
    B12(2)    c27       -1000000000
    B12(2)    c28       1000000000
    B13(2)    c29       -1000000000
    B13(2)    c30       1000000000
    B14(2)    c31       -1000000000
    B14(2)    c32       1000000000
    B15(2)    c33       -1000000000
    B15(2)    c34       1000000000
    B16(2)    c35       -1000000000
    B16(2)    c36       1000000000
    B17(2)    c37       -1000000000
    B17(2)    c38       1000000000
    B18(2)    c39       -1000000000
    B18(2)    c40       1000000000
    B19(2)    c41       -1000000000
    B19(2)    c42       1000000000
    B20(2)    c43       -1000000000
    B20(2)    c44       1000000000
    B21(2)    c45       -1000000000
    B21(2)    c46       1000000000
    B22(2)    c47       -1000000000
    B22(2)    c48       1000000000
    B23(2)    c49       -1000000000
    B23(2)    c50       1000000000
    B24(2)    c51       -1000000000
    B24(2)    c52       1000000000
    B25(2)    c53       -1000000000
    B25(2)    c54       1000000000
    MARKER    'MARKER'                 'INTEND'
    C26(11)   c6        1
    C26(11)   c16       -1
    C26(11)   c17       -1
    C26(11)   c23       1
    C26(11)   c24       -1
    C26(11)   c25       1
    C26(11)   c26       -1
    C26(11)   c27       1
    C26(11)   c28       -1
    C26(11)   c55       1
    C26(11)   c65       -1
    C27(11)   c7        1
    C27(11)   c16       1
    C27(11)   c17       1
    C27(11)   c29       1
    C27(11)   c30       -1
    C27(11)   c35       1
    C27(11)   c36       -1
    C27(11)   c39       1
    C27(11)   c40       -1
    C27(11)   c56       1
    C27(11)   c65       -1
    C28(13)   c8        1
    C28(13)   c16       1
    C28(13)   c17       1
    C28(13)   c31       1
    C28(13)   c32       -1
    C28(13)   c33       1
    C28(13)   c34       -1
    C28(13)   c37       1
    C28(13)   c38       -1
    C28(13)   c41       1
    C28(13)   c42       -1
    C28(13)   c57       1
    C28(13)   c65       -1
    C29(13)   c9        1
    C29(13)   c18       -1
    C29(13)   c19       -1
    C29(13)   c23       -1
    C29(13)   c24       1
    C29(13)   c29       -1
    C29(13)   c30       1
    C29(13)   c43       1
    C29(13)   c44       -1
    C29(13)   c47       1
    C29(13)   c48       -1
    C29(13)   c58       1
    C29(13)   c65       -1
    C30(11)   c10       1
    C30(11)   c18       -1
    C30(11)   c19       -1
    C30(11)   c31       -1
    C30(11)   c32       1
    C30(11)   c45       1
    C30(11)   c46       -1
    C30(11)   c49       1
    C30(11)   c50       -1
    C30(11)   c59       1
    C30(11)   c65       -1
    C31(11)   c11       1
    C31(11)   c18       1
    C31(11)   c19       1
    C31(11)   c33       -1
    C31(11)   c34       1
    C31(11)   c51       1
    C31(11)   c52       -1
    C31(11)   c53       1
    C31(11)   c54       -1
    C31(11)   c60       1
    C31(11)   c65       -1
    C32(12)   c12       1
    C32(12)   c20       -1
    C32(12)   c21       -1
    C32(12)   c22       -1
    C32(12)   c25       -1
    C32(12)   c26       1
    C32(12)   c35       -1
    C32(12)   c36       1
    C32(12)   c43       -1
    C32(12)   c44       1
    C32(12)   c61       1
    C32(12)   c65       -1
    C33(12)   c13       1
    C33(12)   c20       -1
    C33(12)   c21       -1
    C33(12)   c22       -1
    C33(12)   c37       -1
    C33(12)   c38       1
    C33(12)   c45       -1
    C33(12)   c46       1
    C33(12)   c51       -1
    C33(12)   c52       1
    C33(12)   c62       1
    C33(12)   c65       -1
    C34(12)   c14       1
    C34(12)   c20       1
    C34(12)   c21       1
    C34(12)   c22       1
    C34(12)   c27       -1
    C34(12)   c28       1
    C34(12)   c39       -1
    C34(12)   c40       1
    C34(12)   c47       -1
    C34(12)   c48       1
    C34(12)   c63       1
    C34(12)   c65       -1
    C35(12)   c15       1
    C35(12)   c20       1
    C35(12)   c21       1
    C35(12)   c22       1
    C35(12)   c41       -1
    C35(12)   c42       1
    C35(12)   c49       -1
    C35(12)   c50       1
    C35(12)   c53       -1
    C35(12)   c54       1
    C35(12)   c64       1
    C35(12)   c65       -1
    C36(1)    OBJ       1
    C36(1)    c65       1
RHS
    RHS1      c0        1
    RHS1      c1        1
    RHS1      c2        1
    RHS1      c3        1
    RHS1      c4        1
    RHS1      c5        1
    RHS1      c17       -1999999993
    RHS1      c19       -1999999993
    RHS1      c21       -1999999991
    RHS1      c22       -1999999991
    RHS1      c23       -2999999930
    RHS1      c24       -1999999948
    RHS1      c25       -2999999867
    RHS1      c26       -1999999949
    RHS1      c27       -2999999949
    RHS1      c28       -1999999950
    RHS1      c29       -2999999930
    RHS1      c30       -1999999905
    RHS1      c31       -2999999941
    RHS1      c32       -1999999896
    RHS1      c33       -2999999919
    RHS1      c34       -1999999899
    RHS1      c35       -2999999867
    RHS1      c36       -1999999903
    RHS1      c37       -2999999858
    RHS1      c38       -1999999896
    RHS1      c39       -2999999950
    RHS1      c40       -1999999906
    RHS1      c41       -2999999932
    RHS1      c42       -1999999899
    RHS1      c43       -2999999869
    RHS1      c44       -1999999930
    RHS1      c45       -2999999857
    RHS1      c46       -1999999940
    RHS1      c47       -2999999949
    RHS1      c48       -1999999930
    RHS1      c49       -2999999930
    RHS1      c50       -1999999941
    RHS1      c51       -2999999857
    RHS1      c52       -1999999920
    RHS1      c53       -2999999931
    RHS1      c54       -1999999920
BOUNDS
 BV BND1      B0(11)  
 BV BND1      B1(10)  
 BV BND1      B2(11)  
 BV BND1      B3(13)  
 BV BND1      B4(11)  
 BV BND1      B5(10)  
 BV BND1      B6(12)  
 BV BND1      B7(12)  
 BV BND1      B8(10)  
 BV BND1      B9(10)  
 BV BND1      B10(2)  
 BV BND1      B11(2)  
 BV BND1      B12(2)  
 BV BND1      B13(2)  
 BV BND1      B14(2)  
 BV BND1      B15(2)  
 BV BND1      B16(2)  
 BV BND1      B17(2)  
 BV BND1      B18(2)  
 BV BND1      B19(2)  
 BV BND1      B20(2)  
 BV BND1      B21(2)  
 BV BND1      B22(2)  
 BV BND1      B23(2)  
 BV BND1      B24(2)  
 BV BND1      B25(2)  
ENDATA
